c turning on binary mode checking
c parsing input formula with 259840 variables and 1039929 clauses
c finished parsing, read 3040865 bytes from proof file
c detected empty clause; start verification via backward checking
c 2850 of 1039929 clauses in core                            
c 1017 of 118257 lemmas in core using 22464 resolution steps
c 0 RAT lemmas in core; 137 redundant literals in core lemmas
s VERIFIED
c verification time: 1.220 seconds
